W=5;
H=6;

MAX_TIME=19;
MAX_TRACKS=8;

TARGET=(6,5);

TRAINS=[(3,1,RIGHT),(1,1,RIGHT),(2,5,DOWN)];

INIT_POS=[
(1,1,STRAIGHT_RL),
(2,3,ESWITCH_D_T_L),
(2,5,STRAIGHT_TD),
(3,1,STRAIGHT_RL),
(3,3,ESWITCH_T_D_R),
(4,3,ESWITCH_R_L_T),
(6,2,STRAIGHT_RL),
(6,3,STRAIGHT_RL),
(6,4,STRAIGHT_RL),
(6,5,STRAIGHT_RL),
];
TUNNEL_PAIRS=[
  (1, 5, DOWN, 6, 1, RIGHT),
];

GATES=[];
ACTIVATIONS=[];

DSWITCHES=[];
STATIONS=[];
